Optimal - objective value 20260.00000000
      2 x0_3                   1         1.99999999999951
      9 x0_10                  1         1.99999999999932
     17 x1_8                   1                       0
     21 x2_1                   1         -3.99999999999901
     35 x3_6                   1                      16
     40 x4_0                   1         40.0000000000005
     50 x5_0                   1         30.0000000000005
     66 x6_7                   1                       0
     78 x7_9                   1         -2.22044604925031e-15
     84 x8_4                   1         -3.99999999999852
     95 x9_5                   1                       0
    102 x10_2                  1                       0
    110 u1                    17                       0
    111 u2                     7                       0
    112 u3                     7                       0
    113 u4                    25                       0
    114 u5                    25                       0
    115 u6                    11                       0
    116 u7                    13                       0
    117 u8                    22                       0
    118 u9                    22                       0
    119 u10                    4                       0
